************************************************************************
file with basedata            : n/a
initial value random generator: n/a
************************************************************************
projects                      :  1
jobs (incl. supersource/sink ):  32
horizon                       :  152
RESOURCES
  - renewable                 :  4   R
  - nonrenewable              :  0   N
  - doubly constrained        :  0   D
************************************************************************
PROJECT INFORMATION:
pronr.  #jobs rel.date duedate tardcost  MPM-Time
    1     30      0       67        2       67
************************************************************************
PRECEDENCE RELATIONS:
jobnr.    #modes  #successors   successors
   1        1          3           2   3   4
   2        1          3           7  14  17
   3        1          3           5   6  20
   4        1          1          24
   5        1          1          18
   6        1          3           8  19  21
   7        1          1          10
   8        1          2           9  16
   9        1          2          12  24
  10        1          1          11
  11        1          2          13  15
  12        1          1          14
  13        1          2          21  22
  14        1          2          25  31
  15        1          2          26  27
  16        1          1          29
  17        1          1          21
  18        1          1          29
  19        1          1          25
  20        1          1          24
  21        1          1          28
  22        1          1          23
  23        1          3          25  27  31
  24        1          2          26  31
  25        1          1          30
  26        1          1          28
  27        1          1          28
  28        1          1          29
  29        1          1          32
  30        1          1          32
  31        1          1          32
  32        1          0        
************************************************************************
REQUESTS/DURATIONS:
jobnr. mode duration  R 1  R 2  R 3  R 4
------------------------------------------------------------------------
  1      1     0    
  2      1     8       7   7   7   7   7   7   7   0
                      10  10  10  10  10  10  10   0
                       3   3   3   3   3   3   3   0
                       0   0   0   0   0   0   0   0
  3      1     3       8   0   8
                       6   0   6
                       1   0   1
                       2   0   2
  4      1     7       9   9   9   9   9   9   9
                      10  10  10  10  10  10  10
                       0   0   0   0   0   0   0
                       9   9   9   9   9   9   9
  5      1     2      10  10
                       0   0
                       0   0
                       8   8
  6      1     3       1   1   1
                       3   3   3
                       2   2   2
                       0   0   0
  7      1     6       0   1   1   1   1   1
                       0  10  10  10  10  10
                       0   3   3   3   3   3
                       0   9   9   9   9   9
  8      1     7       9   0   9   9   9   9   9
                       0   0   0   0   0   0   0
                       3   0   3   3   3   3   3
                       0   0   0   0   0   0   0
  9      1     9       2   2   2   2   0   2   0   2   2
                       3   3   3   3   0   3   0   3   3
                       0   0   0   0   0   0   0   0   0
                       0   0   0   0   0   0   0   0   0
 10      1     9       7   7   7   7   7   7   7   7   7
                      10  10  10  10  10  10  10  10  10
                       5   5   5   5   5   5   5   5   5
                      10  10  10  10  10  10  10  10  10
 11      1     3       0   0   0
                       5   5   5
                       3   3   3
                       6   6   6
 12      1     1       0
                       4
                       7
                       3
 13      1     2       0   0
                       0   1
                       0   4
                       0   8
 14      1     5       2   2   2   2   2
                       7   7   7   7   7
                       0   0   0   0   0
                      10  10  10  10  10
 15      1     2       7   7
                       3   3
                       6   6
                       8   8
 16      1     5       7   7   7   7   7
                       3   3   3   3   3
                       6   6   6   6   6
                       0   0   0   0   0
 17      1     9       2   2   0   2   2   2   2   2   2
                       3   3   0   3   3   3   3   3   3
                       8   8   0   8   8   8   8   8   8
                       4   4   0   4   4   4   4   4   4
 18      1     3       5   0   5
                       9   0   9
                       4   0   4
                       6   0   6
 19      1     2       8   0
                       1   0
                       7   0
                       0   0
 20      1     3       0   4   0
                       0   2   0
                       0   6   0
                       0   0   0
 21      1     3       0   0   0
                       0   0   0
                       9   9   9
                       8   8   8
 22      1     8       0   0   0   0   0   0   0   0
                       5   5   5   5   5   5   5   5
                       8   8   8   8   8   8   8   8
                       0   0   0   0   0   0   0   0
 23      1     9       1   1   1   0   1   1   1   1   1
                       7   7   7   0   7   7   7   7   7
                      10  10  10   0  10  10  10  10  10
                       4   4   4   0   4   4   4   4   4
 24      1     4       9   9   9   9
                       3   3   3   3
                       0   0   0   0
                       1   1   1   1
 25      1     7       0   0   0   0   0   0   0
                       8   8   8   8   8   8   8
                       0   0   0   0   0   0   0
                       0   0   0   0   0   0   0
 26      1     3       8   8   8
                       1   1   1
                       3   3   3
                      10  10  10
 27      1     9       3   3   3   3   3   3   3   3   3
                       1   1   1   1   1   1   1   1   1
                       7   7   7   7   7   7   7   7   7
                       0   0   0   0   0   0   0   0   0
 28      1     9       8   8   8   8   8   8   8   8   8
                       7   7   7   7   7   7   7   7   7
                       6   6   6   6   6   6   6   6   6
                       5   5   5   5   5   5   5   5   5
 29      1     4       0   0   0   0
                       2   2   2   2
                       2   2   2   2
                       7   7   7   7
 30      1     5       0   0   0   0   0
                       9   9   9   9   9
                       8   8   8   8   8
                       4   4   4   4   4
 31      1     2       9   9
                       9   9
                       0   0
                       0   0
 32      1     0    
************************************************************************
RESOURCEAVAILABILITIES:
  R 1  R 2  R 3  R 4

  30  30  30  30  30  30  30  30   0  30  30  30  30  30  30  30   0  30  30  30  30  30  30  30  30  30  30   0  30  30  30  30  30  30  30  30  30  30   0  30  30  30  30  30  30  30  30  30  30  30  30  30   0  30  30  30  30  30  30  30  30  30  30  30  30  30  30  30  30  30   0  30  30  30  30  30  30   0  30  30   0  30  30  30   0  30  30  30  30  30  30  30  30  30  30  30  30  30  30  30  30  30  30  30  30  30  30  30  30  30  30  30  30  30  30  30  30  30  30  30  30  30   0  30  30  30  30  30  30  30  30  30  30  30  30  30  30  30  30   0  30  30  30  30  30  30  30  30  30  30  30  30

  27  27  27  27  27  27  27  27   0  27  27  27  27  27  27  27   0  27  27  27  27  27  27  27  27  27  27   0  27  27  27  27  27  27  27  27  27  27   0  27  27  27  27  27  27  27  27  27  27  27  27  27   0  27  27  27  27  27  27  27  27  27  27  27  27  27  27  27  27  27   0  27  27  27  27  27  27   0  27  27   0  27  27  27   0  27  27  27  27  27  27  27  27  27  27  27  27  27  27  27  27  27  27  27  27  27  27  27  27  27  27  27  27  27  27  27  27  27  27  27  27  27   0  27  27  27  27  27  27  27  27  27  27  27  27  27  27  27  27   0  27  27  27  27  27  27  27  27  27  27  27  27

  17  17  17  17  17  17  17  17   0  17  17  17  17  17  17  17   0  17  17  17  17  17  17  17  17  17  17   0  17  17  17  17  17  17  17  17  17  17   0  17  17  17  17  17  17  17  17  17  17  17  17  17   0  17  17  17  17  17  17  17  17  17  17  17  17  17  17  17  17  17   0  17  17  17  17  17  17   0  17  17   0  17  17  17   0  17  17  17  17  17  17  17  17  17  17  17  17  17  17  17  17  17  17  17  17  17  17  17  17  17  17  17  17  17  17  17  17  17  17  17  17  17   0  17  17  17  17  17  17  17  17  17  17  17  17  17  17  17  17   0  17  17  17  17  17  17  17  17  17  17  17  17

  21  21  21  21  21  21  21  21   0  21  21  21  21  21  21  21   0  21  21  21  21  21  21  21  21  21  21   0  21  21  21  21  21  21  21  21  21  21   0  21  21  21  21  21  21  21  21  21  21  21  21  21   0  21  21  21  21  21  21  21  21  21  21  21  21  21  21  21  21  21   0  21  21  21  21  21  21   0  21  21   0  21  21  21   0  21  21  21  21  21  21  21  21  21  21  21  21  21  21  21  21  21  21  21  21  21  21  21  21  21  21  21  21  21  21  21  21  21  21  21  21  21   0  21  21  21  21  21  21  21  21  21  21  21  21  21  21  21  21   0  21  21  21  21  21  21  21  21  21  21  21  21

************************************************************************
